instances_and_solutions/roster/eprime/param/44_2_4.param
language ESSENCE' 1.0
letting shiftRequirements = [[17, 1, 10, 16], [14, 1, 13, 16], [15, 1, 12, 16], [14, 1, 11, 18], [15, 1, 11, 17], [20, 1, 9, 14], [20, 1, 9, 14]]
letting numberOfWeeks = 44
letting s_min = 2
letting s_max = 4
